n_res = 5;
n_events = 12;
n_prec = 18;
source = 1;
sink = 12;
min_lvl = [0, -4, -1, -4, -1];
max_lvl = [6, -1, 0, 0, 1];
rr = [| 0, -1, 1, 2, 2, 0, -2, -1, 0, 2, 2, 0
      | 0, -1, 0, 0, -1, 0, 0, 1, 1, -2, -2, 0
      | 0, -1, 2, 0, -1, -2, 2, -2, 2, 0, 0, 0
      | 0, 0, 0, 0, -1, 0, -1, -2, -1, 0, 1, 0
      | 0, -1, 1, 0, 0, 0, -1, 1, 0, 1, 0, 0 |];
prec = [| 1, 0, 2
        | 2, 8, 5
        | 3, -10, 2
        | 3, 0, 7
        | 3, 0, 6
        | 4, 6, 10
        | 4, 5, 7
        | 5, 0, 3
        | 6, 2, 4
        | 6, 0, 9
        | 6, 2, 11
        | 7, 2, 10
        | 7, 0, 8
        | 8, 1, 12
        | 8, -8, 4
        | 9, 3, 12
        | 10, 7, 12
        | 11, 8, 12 |];
